c 9th DIMACS Implementation Challenge: Shortest Paths
c http://www.dis.uniroma1.it/~challenge9
c TIGER/Line graph USA-road-d.CAL
c
p sp 5 10
c graph contains 5 nodes and 10 arcs
c
a 1 2 10
a 2 3 1
a 1 5 5
a 2 5 2
a 5 2 3
a 5 3 9
a 5 4 2
a 1 4 7
a 3 4 4
a 4 3 6
